; Copyright (c) 2026 The RIINA Authors. All rights reserved.
; Auto-generated from 02_FORMAL/coq/domains/CapabilitySecurity.v (108 validations)
; Generated by scripts/generate-full-stack.py
;
; Translation Validation for CapabilitySecurity
; Layer 9: Verifies compiler backend preserves formal semantics.
; Each assertion checks source IR ≡ target code for a proven property.

(set-logic QF_LIA)
(set-option :produce-models true)

; IR node representation
(declare-sort IRNode 0)
(declare-sort TargetNode 0)

; perm_level: source semantics (matches Coq)
(declare-fun source_perm_level () Bool)
(declare-fun target_perm_level () Bool)
(assert (= source_perm_level target_perm_level))

; perm_leq: source semantics (matches Coq)
(declare-fun source_perm_leq () Bool)
(declare-fun target_perm_leq () Bool)
(assert (= source_perm_leq target_perm_leq))

; perm_lt: source semantics (matches Coq)
(declare-fun source_perm_lt () Bool)
(declare-fun target_perm_lt () Bool)
(assert (= source_perm_lt target_perm_lt))

; perm_eq: source semantics (matches Coq)
(declare-fun source_perm_eq () Bool)
(declare-fun target_perm_eq () Bool)
(assert (= source_perm_eq target_perm_eq))

; mem_bounds_check: source semantics (matches Coq)
(declare-fun source_mem_bounds_check () Bool)
(declare-fun target_mem_bounds_check () Bool)
(assert (= source_mem_bounds_check target_mem_bounds_check))

; mem_has_perm: source semantics (matches Coq)
(declare-fun source_mem_has_perm () Bool)
(declare-fun target_mem_has_perm () Bool)
(assert (= source_mem_has_perm target_mem_has_perm))

; mem_can_read: source semantics (matches Coq)
(declare-fun source_mem_can_read () Bool)
(declare-fun target_mem_can_read () Bool)
(assert (= source_mem_can_read target_mem_can_read))

; mem_can_write: source semantics (matches Coq)
(declare-fun source_mem_can_write () Bool)
(declare-fun target_mem_can_write () Bool)
(assert (= source_mem_can_write target_mem_can_write))

; mem_can_execute: source semantics (matches Coq)
(declare-fun source_mem_can_execute () Bool)
(declare-fun target_mem_can_execute () Bool)
(assert (= source_mem_can_execute target_mem_can_execute))

; perms_subset: source semantics (matches Coq)
(declare-fun source_perms_subset () Bool)
(declare-fun target_perms_subset () Bool)
(assert (= source_perms_subset target_perms_subset))

; derive_mem_cap: source semantics (matches Coq)
(declare-fun source_derive_mem_cap () Bool)
(declare-fun target_derive_mem_cap () Bool)
(assert (= source_derive_mem_cap target_derive_mem_cap))

; is_revoked: source semantics (matches Coq)
(declare-fun source_is_revoked () Bool)
(declare-fun target_is_revoked () Bool)
(assert (= source_is_revoked target_is_revoked))

; revoke_capability: source semantics (matches Coq)
(declare-fun source_revoke_capability () Bool)
(declare-fun target_revoke_capability () Bool)
(assert (= source_revoke_capability target_revoke_capability))

; has_capability: source semantics (matches Coq)
(declare-fun source_has_capability () Bool)
(declare-fun target_has_capability () Bool)
(assert (= source_has_capability target_has_capability))

; confinement_enforced: source semantics (matches Coq)
(declare-fun source_confinement_enforced () Bool)
(declare-fun target_confinement_enforced () Bool)
(assert (= source_confinement_enforced target_confinement_enforced))

; can_redelegate: source semantics (matches Coq)
(declare-fun source_can_redelegate () Bool)
(declare-fun target_can_redelegate () Bool)
(assert (= source_can_redelegate target_can_redelegate))

; capability_sound: source semantics (matches Coq)
(declare-fun source_capability_sound () Bool)
(declare-fun target_capability_sound () Bool)
(assert (= source_capability_sound target_capability_sound))

; ocap_sound: source semantics (matches Coq)
(declare-fun source_ocap_sound () Bool)
(declare-fun target_ocap_sound () Bool)
(assert (= source_ocap_sound target_ocap_sound))

; least_privilege_enforced: source semantics (matches Coq)
(declare-fun source_least_privilege_enforced () Bool)
(declare-fun target_least_privilege_enforced () Bool)
(assert (= source_least_privilege_enforced target_least_privilege_enforced))

; capability_secure: source semantics (matches Coq)
(declare-fun source_capability_secure () Bool)
(declare-fun target_capability_secure () Bool)
(assert (= source_capability_secure target_capability_secure))

; riina_cap: source semantics (matches Coq)
(declare-fun source_riina_cap () Bool)
(declare-fun target_riina_cap () Bool)
(assert (= source_riina_cap target_riina_cap))

; riina_ocap: source semantics (matches Coq)
(declare-fun source_riina_ocap () Bool)
(declare-fun target_riina_ocap () Bool)
(assert (= source_riina_ocap target_riina_ocap))

; riina_lp: source semantics (matches Coq)
(declare-fun source_riina_lp () Bool)
(declare-fun target_riina_lp () Bool)
(assert (= source_riina_lp target_riina_lp))

; riina_cap_config: source semantics (matches Coq)
(declare-fun source_riina_cap_config () Bool)
(declare-fun target_riina_cap_config () Bool)
(assert (= source_riina_cap_config target_riina_cap_config))

; riina_confinement: source semantics (matches Coq)
(declare-fun source_riina_confinement () Bool)
(declare-fun target_riina_confinement () Bool)
(assert (= source_riina_confinement target_riina_confinement))

; riina_mem_cap: source semantics (matches Coq)
(declare-fun source_riina_mem_cap () Bool)
(declare-fun target_riina_mem_cap () Bool)
(assert (= source_riina_mem_cap target_riina_mem_cap))

; empty_rev_table: source semantics (matches Coq)
(declare-fun source_empty_rev_table () Bool)
(declare-fun target_empty_rev_table () Bool)
(assert (= source_empty_rev_table target_empty_rev_table))

; riina_delegation: source semantics (matches Coq)
(declare-fun source_riina_delegation () Bool)
(declare-fun target_riina_delegation () Bool)
(assert (= source_riina_delegation target_riina_delegation))

; andb_true_iff: translation preserves property (matches Coq: Lemma)
(declare-fun source_andb_true_iff () Bool)
(declare-fun target_andb_true_iff () Bool)
(assert (= source_andb_true_iff target_andb_true_iff))

; andb_false_iff: translation preserves property (matches Coq: Lemma)
(declare-fun source_andb_false_iff () Bool)
(declare-fun target_andb_false_iff () Bool)
(assert (= source_andb_false_iff target_andb_false_iff))

; orb_true_iff: translation preserves property (matches Coq: Lemma)
(declare-fun source_orb_true_iff () Bool)
(declare-fun target_orb_true_iff () Bool)
(assert (= source_orb_true_iff target_orb_true_iff))

; negb_true_iff: translation preserves property (matches Coq: Lemma)
(declare-fun source_negb_true_iff () Bool)
(declare-fun target_negb_true_iff () Bool)
(assert (= source_negb_true_iff target_negb_true_iff))

; negb_false_iff: translation preserves property (matches Coq: Lemma)
(declare-fun source_negb_false_iff () Bool)
(declare-fun target_negb_false_iff () Bool)
(assert (= source_negb_false_iff target_negb_false_iff))

; CAP_001: translation preserves property (matches Coq: Theorem)
(declare-fun source_CAP_001 () Bool)
(declare-fun target_CAP_001 () Bool)
(assert (= source_CAP_001 target_CAP_001))

; CAP_002: translation preserves property (matches Coq: Theorem)
(declare-fun source_CAP_002 () Bool)
(declare-fun target_CAP_002 () Bool)
(assert (= source_CAP_002 target_CAP_002))

; CAP_003: translation preserves property (matches Coq: Theorem)
(declare-fun source_CAP_003 () Bool)
(declare-fun target_CAP_003 () Bool)
(assert (= source_CAP_003 target_CAP_003))

; CAP_004: translation preserves property (matches Coq: Theorem)
(declare-fun source_CAP_004 () Bool)
(declare-fun target_CAP_004 () Bool)
(assert (= source_CAP_004 target_CAP_004))

; CAP_005: translation preserves property (matches Coq: Theorem)
(declare-fun source_CAP_005 () Bool)
(declare-fun target_CAP_005 () Bool)
(assert (= source_CAP_005 target_CAP_005))

; CAP_006: translation preserves property (matches Coq: Theorem)
(declare-fun source_CAP_006 () Bool)
(declare-fun target_CAP_006 () Bool)
(assert (= source_CAP_006 target_CAP_006))

; CAP_007: translation preserves property (matches Coq: Theorem)
(declare-fun source_CAP_007 () Bool)
(declare-fun target_CAP_007 () Bool)
(assert (= source_CAP_007 target_CAP_007))

; CAP_008: translation preserves property (matches Coq: Theorem)
(declare-fun source_CAP_008 () Bool)
(declare-fun target_CAP_008 () Bool)
(assert (= source_CAP_008 target_CAP_008))

; CAP_009: translation preserves property (matches Coq: Theorem)
(declare-fun source_CAP_009 () Bool)
(declare-fun target_CAP_009 () Bool)
(assert (= source_CAP_009 target_CAP_009))

; CAP_010: translation preserves property (matches Coq: Theorem)
(declare-fun source_CAP_010 () Bool)
(declare-fun target_CAP_010 () Bool)
(assert (= source_CAP_010 target_CAP_010))

; CAP_011: translation preserves property (matches Coq: Theorem)
(declare-fun source_CAP_011 () Bool)
(declare-fun target_CAP_011 () Bool)
(assert (= source_CAP_011 target_CAP_011))

; CAP_012: translation preserves property (matches Coq: Theorem)
(declare-fun source_CAP_012 () Bool)
(declare-fun target_CAP_012 () Bool)
(assert (= source_CAP_012 target_CAP_012))

; CAP_013: translation preserves property (matches Coq: Theorem)
(declare-fun source_CAP_013 () Bool)
(declare-fun target_CAP_013 () Bool)
(assert (= source_CAP_013 target_CAP_013))

; CAP_014: translation preserves property (matches Coq: Theorem)
(declare-fun source_CAP_014 () Bool)
(declare-fun target_CAP_014 () Bool)
(assert (= source_CAP_014 target_CAP_014))

; CAP_015: translation preserves property (matches Coq: Theorem)
(declare-fun source_CAP_015 () Bool)
(declare-fun target_CAP_015 () Bool)
(assert (= source_CAP_015 target_CAP_015))

; CAP_016: translation preserves property (matches Coq: Theorem)
(declare-fun source_CAP_016 () Bool)
(declare-fun target_CAP_016 () Bool)
(assert (= source_CAP_016 target_CAP_016))

; CAP_017: translation preserves property (matches Coq: Theorem)
(declare-fun source_CAP_017 () Bool)
(declare-fun target_CAP_017 () Bool)
(assert (= source_CAP_017 target_CAP_017))

; CAP_018: translation preserves property (matches Coq: Theorem)
(declare-fun source_CAP_018 () Bool)
(declare-fun target_CAP_018 () Bool)
(assert (= source_CAP_018 target_CAP_018))

; CAP_019: translation preserves property (matches Coq: Theorem)
(declare-fun source_CAP_019 () Bool)
(declare-fun target_CAP_019 () Bool)
(assert (= source_CAP_019 target_CAP_019))

; CAP_020: translation preserves property (matches Coq: Theorem)
(declare-fun source_CAP_020 () Bool)
(declare-fun target_CAP_020 () Bool)
(assert (= source_CAP_020 target_CAP_020))

; CAP_021: translation preserves property (matches Coq: Theorem)
(declare-fun source_CAP_021 () Bool)
(declare-fun target_CAP_021 () Bool)
(assert (= source_CAP_021 target_CAP_021))

; CAP_022: translation preserves property (matches Coq: Theorem)
(declare-fun source_CAP_022 () Bool)
(declare-fun target_CAP_022 () Bool)
(assert (= source_CAP_022 target_CAP_022))

; CAP_023: translation preserves property (matches Coq: Theorem)
(declare-fun source_CAP_023 () Bool)
(declare-fun target_CAP_023 () Bool)
(assert (= source_CAP_023 target_CAP_023))

; CAP_024: translation preserves property (matches Coq: Theorem)
(declare-fun source_CAP_024 () Bool)
(declare-fun target_CAP_024 () Bool)
(assert (= source_CAP_024 target_CAP_024))

; CAP_025: translation preserves property (matches Coq: Theorem)
(declare-fun source_CAP_025 () Bool)
(declare-fun target_CAP_025 () Bool)
(assert (= source_CAP_025 target_CAP_025))

; CAP_026: translation preserves property (matches Coq: Theorem)
(declare-fun source_CAP_026 () Bool)
(declare-fun target_CAP_026 () Bool)
(assert (= source_CAP_026 target_CAP_026))

; CAP_027: translation preserves property (matches Coq: Theorem)
(declare-fun source_CAP_027 () Bool)
(declare-fun target_CAP_027 () Bool)
(assert (= source_CAP_027 target_CAP_027))

; CAP_028: translation preserves property (matches Coq: Theorem)
(declare-fun source_CAP_028 () Bool)
(declare-fun target_CAP_028 () Bool)
(assert (= source_CAP_028 target_CAP_028))

; CAP_029: translation preserves property (matches Coq: Theorem)
(declare-fun source_CAP_029 () Bool)
(declare-fun target_CAP_029 () Bool)
(assert (= source_CAP_029 target_CAP_029))

; CAP_030_complete: translation preserves property (matches Coq: Theorem)
(declare-fun source_CAP_030_complete () Bool)
(declare-fun target_CAP_030_complete () Bool)
(assert (= source_CAP_030_complete target_CAP_030_complete))

; CAP_031_unforgeable_implies_authentic: translation preserves property (matches Coq: Theorem)
(declare-fun source_CAP_031_unforgeable_implies_authentic () Bool)
(declare-fun target_CAP_031_unforgeable_implies_authentic () Bool)
(assert (= source_CAP_031_unforgeable_implies_authentic target_CAP_031_unforgeable_implies_authentic))

; CAP_032_unforgeable_config: translation preserves property (matches Coq: Theorem)
(declare-fun source_CAP_032_unforgeable_config () Bool)
(declare-fun target_CAP_032_unforgeable_config () Bool)
(assert (= source_CAP_032_unforgeable_config target_CAP_032_unforgeable_config))

; CAP_033_unforgeable_preservation: translation preserves property (matches Coq: Theorem)
(declare-fun source_CAP_033_unforgeable_preservation () Bool)
(declare-fun target_CAP_033_unforgeable_preservation () Bool)
(assert (= source_CAP_033_unforgeable_preservation target_CAP_033_unforgeable_preservation))

; CAP_034_unforgeable_and_revocable: translation preserves property (matches Coq: Theorem)
(declare-fun source_CAP_034_unforgeable_and_revocable () Bool)
(declare-fun target_CAP_034_unforgeable_and_revocable () Bool)
(assert (= source_CAP_034_unforgeable_and_revocable target_CAP_034_unforgeable_and_revocable))

; CAP_035_no_forge_without_grant: translation preserves property (matches Coq: Theorem)
(declare-fun source_CAP_035_no_forge_without_grant () Bool)
(declare-fun target_CAP_035_no_forge_without_grant () Bool)
(assert (= source_CAP_035_no_forge_without_grant target_CAP_035_no_forge_without_grant))

; CAP_036_encapsulation_prevents_forge: translation preserves property (matches Coq: Theorem)
(declare-fun source_CAP_036_encapsulation_prevents_forge () Bool)
(declare-fun target_CAP_036_encapsulation_prevents_forge () Bool)
(assert (= source_CAP_036_encapsulation_prevents_forge target_CAP_036_encapsulation_prevents_forge))

; CAP_037_connectivity_controlled: translation preserves property (matches Coq: Theorem)
(declare-fun source_CAP_037_connectivity_controlled () Bool)
(declare-fun target_CAP_037_connectivity_controlled () Bool)
(assert (= source_CAP_037_connectivity_controlled target_CAP_037_connectivity_controlled))

; CAP_038_unforgeable_mem_cap: translation preserves property (matches Coq: Theorem)
(declare-fun source_CAP_038_unforgeable_mem_cap () Bool)
(declare-fun target_CAP_038_unforgeable_mem_cap () Bool)
(assert (= source_CAP_038_unforgeable_mem_cap target_CAP_038_unforgeable_mem_cap))

; CAP_039_sealed_cap_unforgeable: translation preserves property (matches Coq: Theorem)
(declare-fun source_CAP_039_sealed_cap_unforgeable () Bool)
(declare-fun target_CAP_039_sealed_cap_unforgeable () Bool)
(assert (= source_CAP_039_sealed_cap_unforgeable target_CAP_039_sealed_cap_unforgeable))

; CAP_040_valid_cap_required: translation preserves property (matches Coq: Theorem)
(declare-fun source_CAP_040_valid_cap_required () Bool)
(declare-fun target_CAP_040_valid_cap_required () Bool)
(assert (= source_CAP_040_valid_cap_required target_CAP_040_valid_cap_required))

; CAP_041_attenuatable_means_monotonic: translation preserves property (matches Coq: Theorem)
(declare-fun source_CAP_041_attenuatable_means_monotonic () Bool)
(declare-fun target_CAP_041_attenuatable_means_monotonic () Bool)
(assert (= source_CAP_041_attenuatable_means_monotonic target_CAP_041_attenuatable_means_monotonic))

; perm_in_head: translation preserves property (matches Coq: Lemma)
(declare-fun source_perm_in_head () Bool)
(declare-fun target_perm_in_head () Bool)
(assert (= source_perm_in_head target_perm_in_head))

; perm_in_cons: translation preserves property (matches Coq: Lemma)
(declare-fun source_perm_in_cons () Bool)
(declare-fun target_perm_in_cons () Bool)
(assert (= source_perm_in_cons target_perm_in_cons))

; forallb_impl: translation preserves property (matches Coq: Lemma)
(declare-fun source_forallb_impl () Bool)
(declare-fun target_forallb_impl () Bool)
(assert (= source_forallb_impl target_forallb_impl))

; CAP_042_perms_subset_reflexive: translation preserves property (matches Coq: Theorem)
(declare-fun source_CAP_042_perms_subset_reflexive () Bool)
(declare-fun target_CAP_042_perms_subset_reflexive () Bool)
(assert (= source_CAP_042_perms_subset_reflexive target_CAP_042_perms_subset_reflexive))

; CAP_043_empty_perms_subset: translation preserves property (matches Coq: Theorem)
(declare-fun source_CAP_043_empty_perms_subset () Bool)
(declare-fun target_CAP_043_empty_perms_subset () Bool)
(assert (= source_CAP_043_empty_perms_subset target_CAP_043_empty_perms_subset))

; CAP_044_derive_from_self: translation preserves property (matches Coq: Theorem)
(declare-fun source_CAP_044_derive_from_self () Bool)
(declare-fun target_CAP_044_derive_from_self () Bool)
(assert (= source_CAP_044_derive_from_self target_CAP_044_derive_from_self))

; CAP_045_derive_cannot_exceed_parent: translation preserves property (matches Coq: Theorem)
(declare-fun source_CAP_045_derive_cannot_exceed_parent () Bool)
(declare-fun target_CAP_045_derive_cannot_exceed_parent () Bool)
(assert (= source_CAP_045_derive_cannot_exceed_parent target_CAP_045_derive_cannot_exceed_parent))

; CAP_046_derive_bounds_contained: translation preserves property (matches Coq: Theorem)
(declare-fun source_CAP_046_derive_bounds_contained () Bool)
(declare-fun target_CAP_046_derive_bounds_contained () Bool)
(assert (= source_CAP_046_derive_bounds_contained target_CAP_046_derive_bounds_contained))

; CAP_047_derive_perms_subset: translation preserves property (matches Coq: Theorem)
(declare-fun source_CAP_047_derive_perms_subset () Bool)
(declare-fun target_CAP_047_derive_perms_subset () Bool)
(assert (= source_CAP_047_derive_perms_subset target_CAP_047_derive_perms_subset))

; CAP_048_sealed_prevents_derive: translation preserves property (matches Coq: Theorem)
(declare-fun source_CAP_048_sealed_prevents_derive () Bool)
(declare-fun target_CAP_048_sealed_prevents_derive () Bool)
(assert (= source_CAP_048_sealed_prevents_derive target_CAP_048_sealed_prevents_derive))

; CAP_049_perm_leq_reflexive: translation preserves property (matches Coq: Theorem)
(declare-fun source_CAP_049_perm_leq_reflexive () Bool)
(declare-fun target_CAP_049_perm_leq_reflexive () Bool)
(assert (= source_CAP_049_perm_leq_reflexive target_CAP_049_perm_leq_reflexive))

; CAP_050_read_leq_write: translation preserves property (matches Coq: Theorem)
(declare-fun source_CAP_050_read_leq_write () Bool)
(declare-fun target_CAP_050_read_leq_write () Bool)
(assert (= source_CAP_050_read_leq_write target_CAP_050_read_leq_write))

; CAP_051_write_leq_execute: translation preserves property (matches Coq: Theorem)
(declare-fun source_CAP_051_write_leq_execute () Bool)
(declare-fun target_CAP_051_write_leq_execute () Bool)
(assert (= source_CAP_051_write_leq_execute target_CAP_051_write_leq_execute))

; CAP_052_perm_leq_transitive: translation preserves property (matches Coq: Theorem)
(declare-fun source_CAP_052_perm_leq_transitive () Bool)
(declare-fun target_CAP_052_perm_leq_transitive () Bool)
(assert (= source_CAP_052_perm_leq_transitive target_CAP_052_perm_leq_transitive))

; CAP_053_perm_lt_irreflexive: translation preserves property (matches Coq: Theorem)
(declare-fun source_CAP_053_perm_lt_irreflexive () Bool)
(declare-fun target_CAP_053_perm_lt_irreflexive () Bool)
(assert (= source_CAP_053_perm_lt_irreflexive target_CAP_053_perm_lt_irreflexive))

; CAP_054_monotonic_no_escalation: translation preserves property (matches Coq: Theorem)
(declare-fun source_CAP_054_monotonic_no_escalation () Bool)
(declare-fun target_CAP_054_monotonic_no_escalation () Bool)
(assert (= source_CAP_054_monotonic_no_escalation target_CAP_054_monotonic_no_escalation))

; CAP_055_derive_preserves_validity: translation preserves property (matches Coq: Theorem)
(declare-fun source_CAP_055_derive_preserves_validity () Bool)
(declare-fun target_CAP_055_derive_preserves_validity () Bool)
(assert (= source_CAP_055_derive_preserves_validity target_CAP_055_derive_preserves_validity))

; CAP_056_empty_not_revoked: translation preserves property (matches Coq: Theorem)
(declare-fun source_CAP_056_empty_not_revoked () Bool)
(declare-fun target_CAP_056_empty_not_revoked () Bool)
(assert (= source_CAP_056_empty_not_revoked target_CAP_056_empty_not_revoked))

; CAP_057_revoke_makes_revoked: translation preserves property (matches Coq: Theorem)
(declare-fun source_CAP_057_revoke_makes_revoked () Bool)
(declare-fun target_CAP_057_revoke_makes_revoked () Bool)
(assert (= source_CAP_057_revoke_makes_revoked target_CAP_057_revoke_makes_revoked))

; CAP_058_revoke_idempotent: translation preserves property (matches Coq: Theorem)
(declare-fun source_CAP_058_revoke_idempotent () Bool)
(declare-fun target_CAP_058_revoke_idempotent () Bool)
(assert (= source_CAP_058_revoke_idempotent target_CAP_058_revoke_idempotent))

; CAP_059_revoke_other_unchanged: translation preserves property (matches Coq: Theorem)
(declare-fun source_CAP_059_revoke_other_unchanged () Bool)
(declare-fun target_CAP_059_revoke_other_unchanged () Bool)
(assert (= source_CAP_059_revoke_other_unchanged target_CAP_059_revoke_other_unchanged))

; CAP_060_cap_revocable_riina: translation preserves property (matches Coq: Theorem)
(declare-fun source_CAP_060_cap_revocable_riina () Bool)
(declare-fun target_CAP_060_cap_revocable_riina () Bool)
(assert (= source_CAP_060_cap_revocable_riina target_CAP_060_cap_revocable_riina))

; CAP_061_revocable_implies_can_revoke: translation preserves property (matches Coq: Theorem)
(declare-fun source_CAP_061_revocable_implies_can_revoke () Bool)
(declare-fun target_CAP_061_revocable_implies_can_revoke () Bool)
(assert (= source_CAP_061_revocable_implies_can_revoke target_CAP_061_revocable_implies_can_revoke))

; CAP_062_revoked_mem_cap_invalid: translation preserves property (matches Coq: Theorem)
(declare-fun source_CAP_062_revoked_mem_cap_invalid () Bool)
(declare-fun target_CAP_062_revoked_mem_cap_invalid () Bool)
(assert (= source_CAP_062_revoked_mem_cap_invalid target_CAP_062_revoked_mem_cap_invalid))

; CAP_063_revoked_cannot_read: translation preserves property (matches Coq: Theorem)
(declare-fun source_CAP_063_revoked_cannot_read () Bool)
(declare-fun target_CAP_063_revoked_cannot_read () Bool)
(assert (= source_CAP_063_revoked_cannot_read target_CAP_063_revoked_cannot_read))

; CAP_064_revoked_cannot_write: translation preserves property (matches Coq: Theorem)
(declare-fun source_CAP_064_revoked_cannot_write () Bool)
(declare-fun target_CAP_064_revoked_cannot_write () Bool)
(assert (= source_CAP_064_revoked_cannot_write target_CAP_064_revoked_cannot_write))

; CAP_065_revoked_cannot_execute: translation preserves property (matches Coq: Theorem)
(declare-fun source_CAP_065_revoked_cannot_execute () Bool)
(declare-fun target_CAP_065_revoked_cannot_execute () Bool)
(assert (= source_CAP_065_revoked_cannot_execute target_CAP_065_revoked_cannot_execute))

; CAP_066_confinement_enforced: translation preserves property (matches Coq: Theorem)
(declare-fun source_CAP_066_confinement_enforced () Bool)
(declare-fun target_CAP_066_confinement_enforced () Bool)
(assert (= source_CAP_066_confinement_enforced target_CAP_066_confinement_enforced))

; CAP_067_no_ambient_authority: translation preserves property (matches Coq: Theorem)
(declare-fun source_CAP_067_no_ambient_authority () Bool)
(declare-fun target_CAP_067_no_ambient_authority () Bool)
(assert (= source_CAP_067_no_ambient_authority target_CAP_067_no_ambient_authority))

; CAP_068_explicit_access_only: translation preserves property (matches Coq: Theorem)
(declare-fun source_CAP_068_explicit_access_only () Bool)
(declare-fun target_CAP_068_explicit_access_only () Bool)
(assert (= source_CAP_068_explicit_access_only target_CAP_068_explicit_access_only))

; CAP_069_no_privilege_escalation: translation preserves property (matches Coq: Theorem)
(declare-fun source_CAP_069_no_privilege_escalation () Bool)
(declare-fun target_CAP_069_no_privilege_escalation () Bool)
(assert (= source_CAP_069_no_privilege_escalation target_CAP_069_no_privilege_escalation))

; CAP_070_ocap_no_ambient: translation preserves property (matches Coq: Theorem)
(declare-fun source_CAP_070_ocap_no_ambient () Bool)
(declare-fun target_CAP_070_ocap_no_ambient () Bool)
(assert (= source_CAP_070_ocap_no_ambient target_CAP_070_ocap_no_ambient))

; CAP_071_has_cap_empty: translation preserves property (matches Coq: Theorem)
(declare-fun source_CAP_071_has_cap_empty () Bool)
(declare-fun target_CAP_071_has_cap_empty () Bool)
(assert (= source_CAP_071_has_cap_empty target_CAP_071_has_cap_empty))

; CAP_072_has_cap_head: translation preserves property (matches Coq: Theorem)
(declare-fun source_CAP_072_has_cap_head () Bool)
(declare-fun target_CAP_072_has_cap_head () Bool)
(assert (= source_CAP_072_has_cap_head target_CAP_072_has_cap_head))

; CAP_073_confinement_complete: translation preserves property (matches Coq: Theorem)
(declare-fun source_CAP_073_confinement_complete () Bool)
(declare-fun target_CAP_073_confinement_complete () Bool)
(assert (= source_CAP_073_confinement_complete target_CAP_073_confinement_complete))

; CAP_074_confined_needs_cap: translation preserves property (matches Coq: Theorem)
(declare-fun source_CAP_074_confined_needs_cap () Bool)
(declare-fun target_CAP_074_confined_needs_cap () Bool)
(assert (= source_CAP_074_confined_needs_cap target_CAP_074_confined_needs_cap))

; CAP_075_confined_no_escalate: translation preserves property (matches Coq: Theorem)
(declare-fun source_CAP_075_confined_no_escalate () Bool)
(declare-fun target_CAP_075_confined_no_escalate () Bool)
(assert (= source_CAP_075_confined_no_escalate target_CAP_075_confined_no_escalate))

; CAP_076_full_can_redelegate: translation preserves property (matches Coq: Theorem)
(declare-fun source_CAP_076_full_can_redelegate () Bool)
(declare-fun target_CAP_076_full_can_redelegate () Bool)
(assert (= source_CAP_076_full_can_redelegate target_CAP_076_full_can_redelegate))

; CAP_077_restricted_cannot_redelegate: translation preserves property (matches Coq: Theorem)
(declare-fun source_CAP_077_restricted_cannot_redelegate () Bool)
(declare-fun target_CAP_077_restricted_cannot_redelegate () Bool)
(assert (= source_CAP_077_restricted_cannot_redelegate target_CAP_077_restricted_cannot_redelegate))

; CAP_078_once_cannot_redelegate: translation preserves property (matches Coq: Theorem)
(declare-fun source_CAP_078_once_cannot_redelegate () Bool)
(declare-fun target_CAP_078_once_cannot_redelegate () Bool)
(assert (= source_CAP_078_once_cannot_redelegate target_CAP_078_once_cannot_redelegate))

; CAP_079_inactive_delegation: translation preserves property (matches Coq: Theorem)
(declare-fun source_CAP_079_inactive_delegation () Bool)
(declare-fun target_CAP_079_inactive_delegation () Bool)
(assert (= source_CAP_079_inactive_delegation target_CAP_079_inactive_delegation))

; CAP_080_delegation_has_from: translation preserves property (matches Coq: Theorem)
(declare-fun source_CAP_080_delegation_has_from () Bool)
(declare-fun target_CAP_080_delegation_has_from () Bool)
(assert (= source_CAP_080_delegation_has_from target_CAP_080_delegation_has_from))

; CAP_081_delegation_has_to: translation preserves property (matches Coq: Theorem)
(declare-fun source_CAP_081_delegation_has_to () Bool)
(declare-fun target_CAP_081_delegation_has_to () Bool)
(assert (= source_CAP_081_delegation_has_to target_CAP_081_delegation_has_to))

; CAP_082_delegation_has_cap: translation preserves property (matches Coq: Theorem)
(declare-fun source_CAP_082_delegation_has_cap () Bool)
(declare-fun target_CAP_082_delegation_has_cap () Bool)
(assert (= source_CAP_082_delegation_has_cap target_CAP_082_delegation_has_cap))

; CAP_083_delegation_type_full: translation preserves property (matches Coq: Theorem)
(declare-fun source_CAP_083_delegation_type_full () Bool)
(declare-fun target_CAP_083_delegation_type_full () Bool)
(assert (= source_CAP_083_delegation_type_full target_CAP_083_delegation_type_full))

; CAP_084_delegation_type_restricted: translation preserves property (matches Coq: Theorem)
(declare-fun source_CAP_084_delegation_type_restricted () Bool)
(declare-fun target_CAP_084_delegation_type_restricted () Bool)
(assert (= source_CAP_084_delegation_type_restricted target_CAP_084_delegation_type_restricted))

; CAP_085_delegation_type_once: translation preserves property (matches Coq: Theorem)
(declare-fun source_CAP_085_delegation_type_once () Bool)
(declare-fun target_CAP_085_delegation_type_once () Bool)
(assert (= source_CAP_085_delegation_type_once target_CAP_085_delegation_type_once))

; CAP_086_bounds_check_in_range: translation preserves property (matches Coq: Theorem)
(declare-fun source_CAP_086_bounds_check_in_range () Bool)
(declare-fun target_CAP_086_bounds_check_in_range () Bool)
(assert (= source_CAP_086_bounds_check_in_range target_CAP_086_bounds_check_in_range))

; CAP_087_bounds_check_out_of_range_low: translation preserves property (matches Coq: Theorem)
(declare-fun source_CAP_087_bounds_check_out_of_range_low () Bool)
(declare-fun target_CAP_087_bounds_check_out_of_range_low () Bool)
(assert (= source_CAP_087_bounds_check_out_of_range_low target_CAP_087_bounds_check_out_of_range_low))

; CAP_088_bounds_check_out_of_range_high: translation preserves property (matches Coq: Theorem)
(declare-fun source_CAP_088_bounds_check_out_of_range_high () Bool)
(declare-fun target_CAP_088_bounds_check_out_of_range_high () Bool)
(assert (= source_CAP_088_bounds_check_out_of_range_high target_CAP_088_bounds_check_out_of_range_high))

; CAP_089_riina_mem_cap_valid: translation preserves property (matches Coq: Theorem)
(declare-fun source_CAP_089_riina_mem_cap_valid () Bool)
(declare-fun target_CAP_089_riina_mem_cap_valid () Bool)
(assert (= source_CAP_089_riina_mem_cap_valid target_CAP_089_riina_mem_cap_valid))

; CAP_090_riina_mem_cap_not_sealed: translation preserves property (matches Coq: Theorem)
(declare-fun source_CAP_090_riina_mem_cap_not_sealed () Bool)
(declare-fun target_CAP_090_riina_mem_cap_not_sealed () Bool)
(assert (= source_CAP_090_riina_mem_cap_not_sealed target_CAP_090_riina_mem_cap_not_sealed))

; CAP_091_riina_mem_cap_base: translation preserves property (matches Coq: Theorem)
(declare-fun source_CAP_091_riina_mem_cap_base () Bool)
(declare-fun target_CAP_091_riina_mem_cap_base () Bool)
(assert (= source_CAP_091_riina_mem_cap_base target_CAP_091_riina_mem_cap_base))

; CAP_092_riina_mem_cap_length: translation preserves property (matches Coq: Theorem)
(declare-fun source_CAP_092_riina_mem_cap_length () Bool)
(declare-fun target_CAP_092_riina_mem_cap_length () Bool)
(assert (= source_CAP_092_riina_mem_cap_length target_CAP_092_riina_mem_cap_length))

; CAP_093_valid_for_read: translation preserves property (matches Coq: Theorem)
(declare-fun source_CAP_093_valid_for_read () Bool)
(declare-fun target_CAP_093_valid_for_read () Bool)
(assert (= source_CAP_093_valid_for_read target_CAP_093_valid_for_read))

; CAP_094_valid_for_write: translation preserves property (matches Coq: Theorem)
(declare-fun source_CAP_094_valid_for_write () Bool)
(declare-fun target_CAP_094_valid_for_write () Bool)
(assert (= source_CAP_094_valid_for_write target_CAP_094_valid_for_write))

; CAP_095_valid_for_execute: translation preserves property (matches Coq: Theorem)
(declare-fun source_CAP_095_valid_for_execute () Bool)
(declare-fun target_CAP_095_valid_for_execute () Bool)
(assert (= source_CAP_095_valid_for_execute target_CAP_095_valid_for_execute))

; CAP_096_sealed_cannot_derive: translation preserves property (matches Coq: Theorem)
(declare-fun source_CAP_096_sealed_cannot_derive () Bool)
(declare-fun target_CAP_096_sealed_cannot_derive () Bool)
(assert (= source_CAP_096_sealed_cannot_derive target_CAP_096_sealed_cannot_derive))

; CAP_097_empty_perms_no_access: translation preserves property (matches Coq: Theorem)
(declare-fun source_CAP_097_empty_perms_no_access () Bool)
(declare-fun target_CAP_097_empty_perms_no_access () Bool)
(assert (= source_CAP_097_empty_perms_no_access target_CAP_097_empty_perms_no_access))

; CAP_098_mem_cap_complete: translation preserves property (matches Coq: Theorem)
(declare-fun source_CAP_098_mem_cap_complete () Bool)
(declare-fun target_CAP_098_mem_cap_complete () Bool)
(assert (= source_CAP_098_mem_cap_complete target_CAP_098_mem_cap_complete))

; CAP_099_zero_length_no_access: translation preserves property (matches Coq: Theorem)
(declare-fun source_CAP_099_zero_length_no_access () Bool)
(declare-fun target_CAP_099_zero_length_no_access () Bool)
(assert (= source_CAP_099_zero_length_no_access target_CAP_099_zero_length_no_access))

; CAP_100_security_complete: translation preserves property (matches Coq: Theorem)
(declare-fun source_CAP_100_security_complete () Bool)
(declare-fun target_CAP_100_security_complete () Bool)
(assert (= source_CAP_100_security_complete target_CAP_100_security_complete))

; Verify all translation validations are satisfiable
(check-sat)
(exit)
